NAME          COPTPROB
OBJSENSE
  MIN
ROWS
 N  __OBJ___
 L  C5      
 L  C11     
 L  C83     
 L  C101    
 L  C112    
 L  C125    
 L  C173    
 L  C177    
 L  C180    
 L  C189    
COLUMNS
    MARKER    'MARKER'                 'INTORG'
    x133      __OBJ___  28
    x133      C177      -1
    x133      C180      -1
    x169      __OBJ___  99
    x169      C11       -1
    x169      C83       -1
    x635      __OBJ___  65
    x635      C101      -1
    x1018     __OBJ___  99
    x1018     C101      -1
    x1018     C173      -1
    x1393     __OBJ___  32
    x1393     C112      -1
    x1393     C189      -1
    x1411     __OBJ___  52
    x1411     C125      -1
    x1411     C173      -1
    x1441     __OBJ___  110
    x1441     C5        -1
    x1441     C83       -1
    x1787     __OBJ___  44
    x1787     C11       -1
    x1879     __OBJ___  49
    x1879     C11       -1
    x1879     C180      -1
    x2075     __OBJ___  88
    x2075     C101      -1
    x2075     C177      -1
    x2219     __OBJ___  26
    x2219     C5        -1
    x2219     C112      -1
    x2584     __OBJ___  79
    x2584     C125      -1
    x2584     C189      -1
    MARKER    'MARKER'                 'INTEND'
RHS
    RHS       __OBJ___  -4445
    RHS       C5        -1
    RHS       C11       -1
    RHS       C83       -1
    RHS       C101      -1
    RHS       C112      -1
    RHS       C125      -1
    RHS       C173      -1
    RHS       C177      -1
    RHS       C180      -1
    RHS       C189      -1
BOUNDS
 UP BOUND     x133      1
 UP BOUND     x169      1
 UP BOUND     x635      1
 UP BOUND     x1018     1
 UP BOUND     x1393     1
 UP BOUND     x1411     1
 UP BOUND     x1441     1
 UP BOUND     x1787     1
 UP BOUND     x1879     1
 UP BOUND     x2075     1
 UP BOUND     x2219     1
 UP BOUND     x2584     1
ENDATA
